webassembly/ejemplos_dzn/folder16_json_52.dzn
TERM = { '.', 's(2)', 's(5)', 's(4)', 'in_1', 'local_0', 'local_1', 's(8)', 's(6)', 's(1)', 's(0)', 's(7)', 's(3)', 'in_0'};
null = '.';
s = 16;
n = 10;
ndeps = 4;
max_registers_sz = 5;
NR = 2;
registers = [|'local_0', 's(7)', |'local_1', 's(5)'|];
dependencies = [|'i32.load8_s_0', 'call[function_index(0)]_7', |'call[function_index(0)]_7', 'i32.load_15', |'i32.load16_s_1', 'call[function_index(0)]_7', |'i32.load8_u_3', 'call[function_index(0)]_7'|];
GET_ENUM = { GET1, GET2, GET3, GET4, GET5, GET6, GET7};
SET_ENUM = { SET1, SET2, SET3, SET4, SET5, SET6, SET7};
TEE_ENUM = { TEE1, TEE2, TEE3, TEE4, TEE5, TEE6, TEE7};
N = 8;
OP = { 'call[function_index(0)]_7', 'i32.load8_s_0', 'i32.load16_s_1', 'i32.add_0', 'i32.load8_u_3', 'i32.add_1', 'i32.sub_0', 'i32.load_15' };
in_ops = [0, 1, 1, 2, 1, 2, 2, 1 ];
out_ops = [2, 1, 1, 1, 1, 1, 1, 1 ];
in1 = ['.', 'in_0', 's(0)', 's(1)', 's(2)', 's(5)', 's(6)', 's(7)' ];
in2 = ['.', '.', '.', 'in_1', '.', 's(4)', 'local_0', '.' ];
in3 = ['.', '.', '.', '.', '.', '.', '.', '.' ];
out1 = ['s(5)', 's(0)', 's(1)', 's(2)', 's(3)', 's(6)', 's(7)', 's(8)' ];
out2 = ['s(4)', '.', '.', '.', '.', '.', '.', '.' ];
out3 = ['.', '.', '.', '.', '.', '.', '.', '.' ];
comm = [false, false, false, true, false, true, false, false ];
gas = [1, 1, 1, 1, 1, 1, 1, 1 ];
sz = [1, 1, 1, 1, 1, 1, 1, 1 ];
stor = [true, false, false, false, false, false, false, false ];
lb = [ 1, 1, 1, 1, 1, 1, 1, 1 ];
ub = [ 16, 16, 16, 16, 16, 16, 16, 16 ];
startstack = [ 'in_0', 'in_1', null, null, null, null, null, null, null, null ];
endstack = [ 's(8)', 'local_0', 's(3)', null, null, null, null, null, null, null ];
